Function: get_partitions took 1.9550323486328125e-05 seconds
Function: map_flows_partitions took 3.5762786865234375e-06 seconds
Building model with:
2 devices, 3 partitions and 1 flows
Using license file /home/anup/gurobi.lic
Academic license - for non-commercial use only
Function: MIP.add_frac_mem_var took 0.0002181529998779297 seconds
Function: MIP.add_coverage_constraints took 0.00022530555725097656 seconds
Function: MIP.add_accuracy_constraints took 0.00017118453979492188 seconds
Function: MIP.add_capacity_constraints took 0.00028705596923828125 seconds
Changed value of parameter TimeLimit to 120.0
   Prev: inf  Min: 0.0  Max: inf  Default: inf
Changed value of parameter NonConvex to 2
   Prev: -1  Min: -1  Max: 2  Default: -1
--------------------------------------------------
Starting model update
Model update took: 4.887580871582031e-05 s
--------------------------------------------------
Starting model optimize
Gurobi Optimizer version 9.0.0 build v9.0.0rc2 (linux64)
Optimize a model with 19 rows, 29 columns and 50 nonzeros
Model fingerprint: 0x9fe697fa
Model has 3 quadratic constraints
Model has 3 general constraints
Variable types: 27 continuous, 2 integer (0 binary)
Coefficient statistics:
  Matrix range     [1e-04, 5e+03]
  QMatrix range    [1e+00, 1e+00]
  QLMatrix range   [1e+00, 1e+00]
  Objective range  [1e+00, 1e+00]
  Bounds range     [1e+00, 3e+04]
  RHS range        [1e+00, 2e+01]

---------------------------------------------------------------------------
Multi-objectives: starting optimization with 2 objectives ... 
---------------------------------------------------------------------------

Multi-objectives: applying initial presolve ...
---------------------------------------------------------------------------

Presolve removed 4 rows and 4 columns
Presolve time: 0.00s
Presolved: 27 rows and 26 columns
---------------------------------------------------------------------------

Multi-objectives: optimize objective 1 (ns) ...
---------------------------------------------------------------------------

Presolve removed 12 rows and 10 columns
Presolve time: 0.00s
Presolved: 27 rows, 17 columns, 69 nonzeros
Presolved model has 1 SOS constraint(s)
Presolved model has 3 bilinear constraint(s)
Variable types: 12 continuous, 5 integer (3 binary)

Root relaxation: objective 1.020408e+01, 10 iterations, 0.00 seconds

    Nodes    |    Current Node    |     Objective Bounds      |     Work
 Expl Unexpl |  Obj  Depth IntInf | Incumbent    BestBd   Gap | It/Node Time

     0     0   10.20408    0    1          -   10.20408      -     -    0s
     0     0   10.24211    0    4          -   10.24211      -     -    0s
     0     0   11.05174    0    4          -   11.05174      -     -    0s
     0     0   11.08385    0    4          -   11.08385      -     -    0s
     0     0   11.08857    0    4          -   11.08857      -     -    0s
     0     0   11.09561    0    2          -   11.09561      -     -    0s
     0     0   11.09561    0    2          -   11.09561      -     -    0s
     0     2   11.09561    0    2          -   11.09561      -     -    0s
*    2     2               1      12.5000000   12.41671  0.67%   2.5    0s
*    6     0               3      12.4167139   12.41671  0.00%   1.8    0s

Cutting planes:
  MIR: 1
  RLT: 1

Explored 7 nodes (30 simplex iterations) in 0.01 seconds
Thread count was 8 (of 8 available processors)

Solution count 2: 12.4167 12.5 

Optimal solution found (tolerance 1.00e-04)
Best objective 1.241671392314e+01, best bound 1.241671392314e+01, gap 0.0000%
---------------------------------------------------------------------------

Multi-objectives: optimize objective 2 (res) ...
---------------------------------------------------------------------------


Loaded user MIP start with objective 84.1341

Presolve removed 26 rows and 23 columns
Presolve time: 0.00s
Presolved: 6 rows, 3 columns, 16 nonzeros
Presolved model has 1 bilinear constraint(s)
Variable types: 3 continuous, 0 integer (0 binary)

Root relaxation: objective 8.412523e+01, 2 iterations, 0.00 seconds

    Nodes    |    Current Node    |     Objective Bounds      |     Work
 Expl Unexpl |  Obj  Depth IntInf | Incumbent    BestBd   Gap | It/Node Time

*    0     0               0      84.1252261   84.12523  0.00%     -    0s

Explored 0 nodes (2 simplex iterations) in 0.01 seconds
Thread count was 8 (of 8 available processors)

Solution count 2: 84.1252 84.1341 

Optimal solution found (tolerance 1.00e-04)
Best objective 8.412522613493e+01, best bound 8.412522613493e+01, gap 0.0000%

---------------------------------------------------------------------------
Multi-objectives: solved in 0.01 seconds, solution count 3

Model optimize took: 0.009740352630615234 seconds
--------------------------------------------------

Solution quality statistics for model Netmon :
  Maximum violation:
    Bound       : 0.00000000e+00
    Constraint  : 1.93383283e-08
    Integrality : 0.00000000e+00

Throughput: 80.52854689796631 Mpps, ns per packet: 12.417956594535971
Resources: 84.1252261349344
Used Cores: 7.0, Total CPUS: 1, Switch Memory: 575.5766628021022

Sketch (0) (cm: eps0: 6.25e-06, del0: 0.05, min_mem: 1698.9296875)
Par: 1, Rows: 3
(0.907,0)    (0.093,1)    
Total frac: 1.000

Sketch (1) (cm: eps0: 0.000625, del0: 0.05, min_mem: 16.9921875)
Par: 1, Rows: 3
(0.000,0)    (1.000,1)    
Total frac: 1.000

Sketch (2) (cm: eps0: 0.000625, del0: 0.05, min_mem: 16.9921875)
Par: 1, Rows: 3
(1.000,1)    (0.000,0)    
Total frac: 1.000

Device (0) CPU_1:
cores_sketch: 2.0, cores_dpdk: 5.0
Rows total: 2.721222401794013
Mem total: 4623.165524697903
Throughput: 80.52854689796631

Device (1) P4_1:
Rows total: 6.278777598205987
Mem total: 575.5766628021022
Throughput: 148.0
--------------------------------------------------
Function: MIP.solve took 0.01612114906311035 seconds
Function: solve took 0.016378164291381836 seconds
